
Gurobi 9.1.1 (win64) logging started Sun Mar 14 13:18:21 2021

Changed value of parameter LogFile to ../results/logs/log_samuel_kroger_2021_03_14_13_18_21.csv_3_2.log
   Prev:   Default: 
Gurobi Optimizer version 9.1.1 build v9.1.1rc0 (win64)
Thread count: 6 physical cores, 12 logical processors, using up to 12 threads
Optimize a model with 9 rows, 32 columns and 32 nonzeros
Model fingerprint: 0x82880002
Coefficient statistics:
  Matrix range     [1e+00, 1e+00]
  Objective range  [1e+00, 1e+00]
  Bounds range     [1e+00, 1e+00]
  RHS range        [1e+00, 2e+00]
Presolve removed 9 rows and 32 columns
Presolve time: 0.00s
Presolve: All rows and columns removed
Iteration    Objective       Primal Inf.    Dual Inf.      Time
       0    1.0000000e+01   0.000000e+00   0.000000e+00      0s

Solved in 0 iterations and 0.00 seconds
Optimal objective  1.000000000e+01
